Route #1: 1 27 20 8 26 14 61 62 50 43 1
Route #2: 1 12 34 45 16 57 1
Route #3: 1 21 35 3 31 30 55 1
Route #4: 1 13 29 23 18 36 52 59 1
Route #5: 1 44 39 32 47 2 19 48 5 53 1
Route #6: 1 11 40 24 63 58 38 7 54 1
Route #7: 1 49 37 25 9 60 1
Route #8: 1 10 42 4 28 46 6 17 1
Route #9: 1 22 56 33 41 15 51 1
cost 1799
